
Gurobi 11.0.1 (win64) logging started Sun Mar 31 23:14:21 2024

Set parameter LogFile to value "C:\Projetos\Job_Rotation_Algorithms\Outputs\GurobiLogs\gurobi_log-output-18_hes-c145-CostaMirallesModel-NoExtraConstraint-2.log"
Gurobi Optimizer version 11.0.1 build v11.0.1rc0 (win64 - Windows 10.0 (19045.2))

CPU model: 11th Gen Intel(R) Core(TM) i7-1165G7 @ 2.80GHz, instruction set [SSE2|AVX|AVX2|AVX512]
Thread count: 4 physical cores, 8 logical processors, using up to 1 threads

WLS license 901039 - registered to Bitka Analytics
Optimize a model with 471 rows, 862 columns and 6866 nonzeros
Model fingerprint: 0x95e88471
Variable types: 2 continuous, 860 integer (860 binary)
Coefficient statistics:
  Matrix range     [1e+00, 1e+02]
  Objective range  [1e+00, 1e+00]
  Bounds range     [1e+00, 3e+02]
  RHS range        [1e+00, 3e+02]
Presolve removed 171 rows and 153 columns
Presolve time: 0.03s
Presolved: 300 rows, 709 columns, 4108 nonzeros
Variable types: 0 continuous, 709 integer (708 binary)

Root relaxation: objective 5.600000e+01, 295 iterations, 0.00 seconds (0.00 work units)

    Nodes    |    Current Node    |     Objective Bounds      |     Work
 Expl Unexpl |  Obj  Depth IntInf | Incumbent    BestBd   Gap | It/Node Time

     0     0   56.00000    0   11          -   56.00000      -     -    0s
     0     0   56.00000    0  113          -   56.00000      -     -    0s
     0     0   56.00000    0  112          -   56.00000      -     -    0s
     0     0   56.00000    0   18          -   56.00000      -     -    0s
     0     0   56.00000    0   27          -   56.00000      -     -    0s
     0     0   56.00000    0   36          -   56.00000      -     -    0s
     0     0   56.00000    0   53          -   56.00000      -     -    0s
     0     0   56.00000    0   24          -   56.00000      -     -    0s
     0     0   56.00000    0   24          -   56.00000      -     -    0s
     0     2   56.00000    0   15          -   56.00000      -     -    0s
H  161    41                      52.0000000   56.00000  7.69%  43.5    0s
H  210    21                      55.0000000   56.00000  1.82%  43.8    0s

Cutting planes:
  Cover: 151
  Implied bound: 4
  Clique: 50
  MIR: 15
  StrongCG: 6
  GUB cover: 3
  Inf proof: 3
  Zero half: 4
  Mod-K: 1
  RLT: 3
  Relax-and-lift: 1

Explored 211 nodes (13600 simplex iterations) in 0.72 seconds (0.55 work units)
Thread count was 1 (of 8 available processors)

Solution count 2: 55 52 

Optimal solution found (tolerance 1.00e-03)
Best objective 5.500000000000e+01, best bound 5.500000000000e+01, gap 0.0000%
